\ Model _copy
\ LP format - for model browsing. Use MPS format to capture full model detail.
\ Signature: 0xed07b7ce680def88
Minimize
 
Subject To
 R295394: - x[1792,76] - x[2304,76] - x[6602,76] = 0
 R295395: - x[1793,76] - x[2305,76] - x[6603,76] = 0
 R295396: - x[1794,76] - x[2306,76] - x[6604,76] = 0
 R295397: - x[1795,76] + x[1826,76] + x[2270,76] - x[2307,76] - x[6605,76]
   = 0
 R295398: - x[1796,76] + x[1827,76] + x[2271,76] - x[2308,76] - x[6606,76]
   = 0
 R295399: - x[1797,76] + x[1828,76] + x[2272,76] - x[2309,76] - x[6607,76]
   = 0
 R295400: - x[1798,76] + x[1829,76] + x[2273,76] - x[2310,76] - x[6608,76]
   = 0
 R295401: - x[1799,76] + x[1830,76] + x[2274,76] - x[2311,76] - x[6609,76]
   = 0
 R295402: - x[1800,76] + x[1831,76] + x[2275,76] - x[2312,76] - x[6610,76]
   = 0
 R295403: - x[1801,76] + x[1832,76] + x[2276,76] - x[2313,76] - x[6611,76]
   = 0
 R295404: - x[1802,76] + x[1833,76] + x[2277,76] - x[2314,76] - x[6612,76]
   = 0
 R295405: - x[1803,76] + x[1834,76] + x[2278,76] - x[2315,76] - x[6613,76]
   = 0
 R295406: - x[1804,76] + x[1835,76] + x[2279,76] - x[2316,76] - x[6614,76]
   = 0
 R295407: - x[1805,76] + x[1836,76] + x[2280,76] - x[2317,76] - x[6615,76]
   = 0
 R295408: - x[1806,76] + x[1837,76] + x[2281,76] - x[2318,76] - x[6616,76]
   = 0
 R295409: - x[1807,76] + x[1838,76] + x[2282,76] - x[2319,76] - x[6617,76]
   = 0
 R295410: - x[1808,76] + x[1839,76] + x[2283,76] - x[2320,76] - x[6618,76]
   = 0
 R295411: - x[1809,76] + x[1840,76] + x[2284,76] - x[2321,76] - x[6619,76]
   = 0
 R295412: - x[1810,76] + x[1841,76] + x[2285,76] - x[2322,76] - x[6620,76]
   = 0
 R295413: - x[1811,76] + x[1842,76] + x[2286,76] - x[2323,76] - x[6621,76]
   = 0
 R295414: - x[1812,76] + x[1843,76] + x[2287,76] - x[2324,76] - x[6622,76]
   = 0
 R295415: - x[1813,76] + x[1844,76] + x[2288,76] - x[2325,76] - x[6623,76]
   = 0
 R295416: - x[1814,76] + x[1845,76] + x[2289,76] - x[2326,76] - x[6624,76]
   = 0
 R295417: - x[1815,76] + x[1846,76] + x[2290,76] - x[2327,76] - x[6625,76]
   = 0
 R295418: - x[1816,76] + x[1847,76] + x[2291,76] - x[2328,76] - x[6626,76]
   = 0
 R295419: - x[1817,76] + x[1848,76] + x[2292,76] - x[2329,76] - x[6627,76]
   = 0
 R295420: - x[1818,76] + x[1849,76] + x[2293,76] - x[2330,76] - x[6628,76]
   = 0
 R295421: - x[1819,76] + x[1850,76] + x[2294,76] - x[2331,76] - x[6629,76]
   = 0
 R295422: - x[1820,76] + x[1851,76] + x[2295,76] - x[2332,76] - x[6630,76]
   = 0
 R295423: - x[1821,76] + x[1852,76] + x[2296,76] - x[2333,76] - x[6631,76]
   = 0
 R295424: - x[1822,76] + x[1853,76] + x[2297,76] - x[2334,76] - x[6632,76]
   = 0
 R295425: - x[1823,76] + x[1854,76] + x[2298,76] - x[2335,76] - x[6633,76]
   = 0
 R295426: - x[1824,76] + x[1855,76] + x[2299,76] - x[2336,76] - x[6634,76]
   = 0
 R295427: - x[1825,76] + x[1856,76] + x[2300,76] - x[2337,76] - x[6635,76]
   = 0
 R295431: - x[2134,76] - x[2270,76] - x[2512,76] - x[6639,76] = 0
 R295432: - x[2135,76] - x[2271,76] + x[2476,76] - x[2513,76] - x[6640,76]
   = 0
 R295433: - x[2136,76] - x[2272,76] + x[2477,76] - x[2514,76] - x[6641,76]
   = 0
 R295434: - x[2137,76] + x[2168,76] - x[2273,76] + x[2304,76] + x[2478,76]
   - x[2515,76] - x[6642,76] = 0
 R295435: - x[2138,76] + x[2169,76] - x[2274,76] + x[2305,76] + x[2479,76]
   - x[2516,76] - x[6643,76] = 0
 R295436: - x[2139,76] + x[2170,76] - x[2275,76] + x[2306,76] + x[2480,76]
   - x[2517,76] - x[6644,76] = 0
 R295437: - x[2140,76] + x[2171,76] - x[2276,76] + x[2307,76] + x[2481,76]
   - x[2518,76] - x[6645,76] = 0
 R295438: - x[2141,76] + x[2172,76] - x[2277,76] + x[2308,76] + x[2482,76]
   - x[2519,76] - x[6646,76] = 0
 R295439: - x[2142,76] + x[2173,76] - x[2278,76] + x[2309,76] + x[2483,76]
   - x[2520,76] - x[6647,76] = 0
 R295440: - x[2143,76] + x[2174,76] - x[2279,76] + x[2310,76] + x[2484,76]
   - x[2521,76] - x[6648,76] = 0
 R295441: - x[2144,76] + x[2175,76] - x[2280,76] + x[2311,76] + x[2485,76]
   - x[2522,76] - x[6649,76] = 0
 R295442: - x[2145,76] + x[2176,76] - x[2281,76] + x[2312,76] + x[2486,76]
   - x[2523,76] - x[6650,76] = 0
 R295443: - x[2146,76] + x[2177,76] - x[2282,76] + x[2313,76] + x[2487,76]
   - x[2524,76] - x[6651,76] = 0
 R295444: - x[2147,76] + x[2178,76] - x[2283,76] + x[2314,76] + x[2488,76]
   - x[2525,76] - x[6652,76] = 0
 R295445: - x[2148,76] + x[2179,76] - x[2284,76] + x[2315,76] + x[2489,76]
   - x[2526,76] - x[6653,76] = 0
 R295446: - x[2149,76] + x[2180,76] - x[2285,76] + x[2316,76] + x[2490,76]
   - x[2527,76] - x[6654,76] = 0
 R295447: - x[2150,76] + x[2181,76] - x[2286,76] + x[2317,76] + x[2491,76]
   - x[2528,76] - x[6655,76] = 0
 R295448: - x[2151,76] + x[2182,76] - x[2287,76] + x[2318,76] + x[2492,76]
   - x[2529,76] - x[6656,76] = 0
 R295449: - x[2152,76] + x[2183,76] - x[2288,76] + x[2319,76] + x[2493,76]
   - x[2530,76] - x[6657,76] = 0
 R295450: - x[2153,76] + x[2184,76] - x[2289,76] + x[2320,76] + x[2494,76]
   - x[2531,76] - x[6658,76] = 0
 R295451: - x[2154,76] + x[2185,76] - x[2290,76] + x[2321,76] + x[2495,76]
   - x[2532,76] - x[6659,76] = 0
 R295452: - x[2155,76] + x[2186,76] - x[2291,76] + x[2322,76] + x[2496,76]
   - x[2533,76] - x[6660,76] = 0
 R295453: - x[2156,76] + x[2187,76] - x[2292,76] + x[2323,76] + x[2497,76]
   - x[2534,76] - x[6661,76] = 0
 R295454: - x[2157,76] + x[2188,76] - x[2293,76] + x[2324,76] + x[2498,76]
   - x[2535,76] - x[6662,76] = 0
 R295455: - x[2158,76] + x[2189,76] - x[2294,76] + x[2325,76] + x[2499,76]
   - x[2536,76] - x[6663,76] = 0
 R295456: - x[2159,76] + x[2190,76] - x[2295,76] + x[2326,76] + x[2500,76]
   - x[2537,76] - x[6664,76] = 0
 R295457: - x[2160,76] + x[2191,76] - x[2296,76] + x[2327,76] + x[2501,76]
   - x[2538,76] - x[6665,76] = 0
 R295458: - x[2161,76] + x[2192,76] - x[2297,76] + x[2328,76] + x[2502,76]
   - x[2539,76] - x[6666,76] = 0
 R295459: - x[2162,76] + x[2193,76] - x[2298,76] + x[2329,76] + x[2503,76]
   - x[2540,76] - x[6667,76] = 0
 R295460: - x[2163,76] + x[2194,76] - x[2299,76] + x[2330,76] + x[2504,76]
   - x[2541,76] - x[6668,76] = 0
 R295461: - x[2164,76] + x[2195,76] - x[2300,76] + x[2331,76] + x[2505,76]
   - x[2542,76] - x[6669,76] = 0
 R295462: - x[2165,76] + x[2196,76] - x[2301,76] + x[2332,76] + x[2506,76]
   - x[2543,76] - x[6670,76] = 0
 R295463: - x[2166,76] + x[2197,76] - x[2302,76] + x[2333,76] + x[2507,76]
   - x[2544,76] - x[6671,76] = 0
 R295464: - x[2167,76] + x[2198,76] - x[2303,76] + x[2334,76] + x[2508,76]
   - x[2545,76] - x[6672,76] = 0
 R295465: x[2199,76] + x[2335,76] + x[2509,76] - x[2546,76] - x[6673,76]
   = 0
 R295466: x[2200,76] + x[2336,76] + x[2510,76] - x[2547,76] - x[6674,76]
   = 0
 R295467: x[2201,76] + x[2337,76] + x[2511,76] - x[6675,76] = 0
 R295912: - x[1044,76] - x[1351,76] - x[1658,76] - x[7120,76] = 0
 R295913: - x[1045,76] - x[1352,76] - x[1659,76] - x[7121,76] = 0
 R295914: - x[1046,76] + x[1316,76] - x[1353,76] - x[1660,76] - x[7122,76]
   = 0
 R295915: - x[1047,76] + x[1078,76] + x[1317,76] - x[1354,76] - x[1661,76]
   - x[7123,76] = 0
 R295916: - x[1048,76] + x[1079,76] + x[1318,76] - x[1355,76] - x[1662,76]
   + x[1691,76] - x[7124,76] = 0
 R295917: - x[1049,76] + x[1080,76] + x[1319,76] - x[1356,76] - x[1663,76]
   + x[1692,76] - x[7125,76] = 0
 R295918: - x[1050,76] + x[1081,76] + x[1320,76] - x[1357,76] - x[1664,76]
   + x[1693,76] - x[7126,76] = 0
 R295919: - x[1051,76] + x[1082,76] + x[1321,76] - x[1358,76] - x[1665,76]
   + x[1694,76] - x[7127,76] = 0
 R295920: - x[1052,76] + x[1083,76] + x[1322,76] - x[1359,76] - x[1666,76]
   + x[1695,76] - x[7128,76] = 0
 R295921: - x[1053,76] + x[1084,76] + x[1323,76] - x[1360,76] - x[1667,76]
   + x[1696,76] - x[7129,76] = 0
 R295922: - x[1054,76] + x[1085,76] + x[1324,76] - x[1361,76] - x[1668,76]
   + x[1697,76] - x[7130,76] = 0
 R295923: - x[1055,76] + x[1086,76] + x[1325,76] - x[1362,76] - x[1669,76]
   + x[1698,76] - x[7131,76] = 0
 R295924: - x[1056,76] + x[1087,76] + x[1326,76] - x[1363,76] - x[1670,76]
   + x[1699,76] - x[7132,76] = 0
 R295925: - x[1057,76] + x[1088,76] + x[1327,76] - x[1364,76] - x[1671,76]
   + x[1700,76] - x[7133,76] = 0
 R295926: - x[1058,76] + x[1089,76] + x[1328,76] - x[1365,76] - x[1672,76]
   + x[1701,76] - x[7134,76] = 0
 R295927: - x[1059,76] + x[1090,76] + x[1329,76] - x[1366,76] - x[1673,76]
   + x[1702,76] - x[7135,76] = 0
 R295928: - x[1060,76] + x[1091,76] + x[1330,76] - x[1367,76] - x[1674,76]
   + x[1703,76] - x[7136,76] = 0
 R295929: - x[1061,76] + x[1092,76] + x[1331,76] - x[1368,76] - x[1675,76]
   + x[1704,76] - x[7137,76] = 0
 R295930: - x[1062,76] + x[1093,76] + x[1332,76] - x[1369,76] - x[1676,76]
   + x[1705,76] - x[7138,76] = 0
 R295931: - x[1063,76] + x[1094,76] + x[1333,76] - x[1370,76] - x[1677,76]
   + x[1706,76] - x[7139,76] = 0
 R295932: - x[1064,76] + x[1095,76] + x[1334,76] - x[1371,76] - x[1678,76]
   + x[1707,76] - x[7140,76] = 0
 R295933: - x[1065,76] + x[1096,76] + x[1335,76] - x[1372,76] - x[1679,76]
   + x[1708,76] - x[7141,76] = 0
 R295934: - x[1066,76] + x[1097,76] + x[1336,76] - x[1373,76] - x[1680,76]
   + x[1709,76] - x[7142,76] = 0
 R295935: - x[1067,76] + x[1098,76] + x[1337,76] - x[1374,76] - x[1681,76]
   + x[1710,76] - x[7143,76] = 0
 R296060: - x[1524,76] - x[1826,76] - x[7268,76] = 0
 R296061: - x[1525,76] - x[1827,76] - x[7269,76] = 0
 R296062: - x[1526,76] - x[1828,76] - x[7270,76] = 0
 R296063: - x[1527,76] + x[1792,76] - x[1829,76] - x[7271,76] = 0
 R296064: - x[1528,76] + x[1557,76] + x[1793,76] - x[1830,76] - x[7272,76]
   = 0
 R296065: - x[1529,76] + x[1558,76] + x[1794,76] - x[1831,76] - x[7273,76]
   = 0
 R296066: - x[1530,76] + x[1559,76] + x[1795,76] - x[1832,76] - x[7274,76]
   = 0
 R296067: - x[1531,76] + x[1560,76] + x[1796,76] - x[1833,76] - x[7275,76]
   = 0
 R296068: - x[1532,76] + x[1561,76] + x[1797,76] - x[1834,76] - x[7276,76]
   = 0
 R296069: - x[1533,76] + x[1562,76] + x[1798,76] - x[1835,76] - x[7277,76]
   = 0
 R296070: - x[1534,76] + x[1563,76] + x[1799,76] - x[1836,76] - x[7278,76]
   = 0
 R296071: - x[1535,76] + x[1564,76] + x[1800,76] - x[1837,76] - x[7279,76]
   = 0
 R296072: - x[1536,76] + x[1565,76] + x[1801,76] - x[1838,76] - x[7280,76]
   = 0
 R296073: - x[1537,76] + x[1566,76] + x[1802,76] - x[1839,76] - x[7281,76]
   = 0
 R296074: - x[1538,76] + x[1567,76] + x[1803,76] - x[1840,76] - x[7282,76]
   = 0
 R296075: - x[1539,76] + x[1568,76] + x[1804,76] - x[1841,76] - x[7283,76]
   = 0
 R296076: - x[1540,76] + x[1569,76] + x[1805,76] - x[1842,76] - x[7284,76]
   = 0
 R296077: - x[1541,76] + x[1570,76] + x[1806,76] - x[1843,76] - x[7285,76]
   = 0
 R296078: - x[1542,76] + x[1571,76] + x[1807,76] - x[1844,76] - x[7286,76]
   = 0
 R296079: - x[1543,76] + x[1572,76] + x[1808,76] - x[1845,76] - x[7287,76]
   = 0
 R296080: - x[1544,76] + x[1573,76] + x[1809,76] - x[1846,76] - x[7288,76]
   = 0
 R296081: - x[1545,76] + x[1574,76] + x[1810,76] - x[1847,76] - x[7289,76]
   = 0
 R296082: - x[1546,76] + x[1575,76] + x[1811,76] - x[1848,76] - x[7290,76]
   = 0
 R296083: - x[1547,76] + x[1576,76] + x[1812,76] - x[1849,76] - x[7291,76]
   = 0
 R296084: - x[1548,76] + x[1577,76] + x[1813,76] - x[1850,76] - x[7292,76]
   = 0
 R296085: - x[1549,76] + x[1578,76] + x[1814,76] - x[1851,76] - x[7293,76]
   = 0
 R296086: - x[1550,76] + x[1579,76] + x[1815,76] - x[1852,76] - x[7294,76]
   = 0
 R296087: - x[1551,76] + x[1580,76] + x[1816,76] - x[1853,76] - x[7295,76]
   = 0
 R296088: - x[1552,76] + x[1581,76] + x[1817,76] - x[1854,76] - x[7296,76]
   = 0
 R296089: - x[1553,76] + x[1582,76] + x[1818,76] - x[1855,76] - x[7297,76]
   = 0
 R296090: - x[1554,76] + x[1583,76] + x[1819,76] - x[1856,76] - x[7298,76]
   = 0
 R296948: - x[1386,76] - x[1557,76] - x[8156,76] = 0
 R296949: - x[1387,76] + x[1422,76] - x[1558,76] - x[8157,76] = 0
 R296950: - x[1388,76] + x[1423,76] - x[1559,76] - x[8158,76] = 0
 R296951: - x[1389,76] + x[1424,76] - x[1560,76] - x[8159,76] = 0
 R296952: - x[1390,76] + x[1425,76] + x[1524,76] - x[1561,76] - x[8160,76]
   = 0
 R296953: - x[1391,76] + x[1426,76] + x[1525,76] - x[1562,76] - x[8161,76]
   = 0
 R296954: - x[1392,76] + x[1427,76] + x[1526,76] - x[1563,76] - x[8162,76]
   = 0
 R296955: - x[1393,76] + x[1428,76] + x[1527,76] - x[1564,76] - x[8163,76]
   = 0
 R296956: - x[1394,76] + x[1429,76] + x[1528,76] - x[1565,76] - x[8164,76]
   = 0
 R296957: - x[1395,76] + x[1430,76] + x[1529,76] - x[1566,76] - x[8165,76]
   = 0
 R296958: - x[1396,76] + x[1431,76] + x[1530,76] - x[1567,76] - x[8166,76]
   = 0
 R296959: - x[1397,76] + x[1432,76] + x[1531,76] - x[1568,76] - x[8167,76]
   = 0
 R296960: - x[1398,76] + x[1433,76] + x[1532,76] - x[1569,76] - x[8168,76]
   = 0
 R296961: - x[1399,76] + x[1434,76] + x[1533,76] - x[1570,76] - x[8169,76]
   = 0
 R296962: - x[1400,76] + x[1435,76] + x[1534,76] - x[1571,76] - x[8170,76]
   = 0
 R296963: - x[1401,76] + x[1436,76] + x[1535,76] - x[1572,76] - x[8171,76]
   = 0
 R296964: - x[1402,76] + x[1437,76] + x[1536,76] - x[1573,76] - x[8172,76]
   = 0
 R296965: - x[1403,76] + x[1438,76] + x[1537,76] - x[1574,76] - x[8173,76]
   = 0
 R296966: - x[1404,76] + x[1439,76] + x[1538,76] - x[1575,76] - x[8174,76]
   = 0
 R296967: - x[1405,76] + x[1440,76] + x[1539,76] - x[1576,76] - x[8175,76]
   = 0
 R296968: - x[1406,76] + x[1441,76] + x[1540,76] - x[1577,76] - x[8176,76]
   = 0
 R296969: - x[1407,76] + x[1442,76] + x[1541,76] - x[1578,76] - x[8177,76]
   = 0
 R296970: - x[1408,76] + x[1443,76] + x[1542,76] - x[1579,76] - x[8178,76]
   = 0
 R296971: - x[1409,76] + x[1444,76] + x[1543,76] - x[1580,76] - x[8179,76]
   = 0
 R296972: - x[1410,76] + x[1445,76] + x[1544,76] - x[1581,76] - x[8180,76]
   = 0
 R296973: - x[1411,76] + x[1446,76] + x[1545,76] - x[1582,76] - x[8181,76]
   = 0
 R296974: - x[1412,76] + x[1447,76] + x[1546,76] - x[1583,76] - x[8182,76]
   = 0
 R297540: - x[1112,76] - x[1316,76] - x[1422,76] - x[1458,76] - x[1724,76]
   - x[8748,76] = 0
 R297541: - x[1113,76] - x[1317,76] + x[1386,76] - x[1423,76] - x[1459,76]
   - x[1725,76] - x[8749,76] = 0
 R297542: - x[1114,76] - x[1318,76] + x[1351,76] + x[1387,76] - x[1424,76]
   - x[1460,76] - x[1726,76] - x[8750,76] = 0
 R297543: - x[1115,76] + x[1146,76] - x[1319,76] + x[1352,76] + x[1388,76]
   - x[1425,76] - x[1461,76] - x[1727,76] + x[1758,76] - x[8751,76] = 0
 R297544: - x[1116,76] + x[1147,76] - x[1320,76] + x[1353,76] + x[1389,76]
   - x[1426,76] - x[1462,76] + x[1491,76] - x[1728,76] + x[1759,76]
   - x[8752,76] = 0
 R297545: - x[1117,76] + x[1148,76] - x[1321,76] + x[1354,76] + x[1390,76]
   - x[1427,76] - x[1463,76] + x[1492,76] - x[1729,76] + x[1760,76]
   - x[8753,76] = 0
 R297546: - x[1118,76] + x[1149,76] - x[1322,76] + x[1355,76] + x[1391,76]
   - x[1428,76] - x[1464,76] + x[1493,76] - x[1730,76] + x[1761,76]
   - x[8754,76] = 0
 R297547: - x[1119,76] + x[1150,76] - x[1323,76] + x[1356,76] + x[1392,76]
   - x[1429,76] - x[1465,76] + x[1494,76] - x[1731,76] + x[1762,76]
   - x[8755,76] = 0
 R297548: - x[1120,76] + x[1151,76] - x[1324,76] + x[1357,76] + x[1393,76]
   - x[1430,76] - x[1466,76] + x[1495,76] - x[1732,76] + x[1763,76]
   - x[8756,76] = 0
 R297549: - x[1121,76] + x[1152,76] - x[1325,76] + x[1358,76] + x[1394,76]
   - x[1431,76] - x[1467,76] + x[1496,76] - x[1733,76] + x[1764,76]
   - x[8757,76] = 0
 R297550: - x[1122,76] + x[1153,76] - x[1326,76] + x[1359,76] + x[1395,76]
   - x[1432,76] - x[1468,76] + x[1497,76] - x[1734,76] + x[1765,76]
   - x[8758,76] = 0
 R297551: - x[1123,76] + x[1154,76] - x[1327,76] + x[1360,76] + x[1396,76]
   - x[1433,76] - x[1469,76] + x[1498,76] - x[1735,76] + x[1766,76]
   - x[8759,76] = 0
 R297552: - x[1124,76] + x[1155,76] - x[1328,76] + x[1361,76] + x[1397,76]
   - x[1434,76] - x[1470,76] + x[1499,76] - x[1736,76] + x[1767,76]
   - x[8760,76] = 0
 R297553: - x[1125,76] + x[1156,76] - x[1329,76] + x[1362,76] + x[1398,76]
   - x[1435,76] - x[1471,76] + x[1500,76] - x[1737,76] + x[1768,76]
   - x[8761,76] = 0
 R297554: - x[1126,76] + x[1157,76] - x[1330,76] + x[1363,76] + x[1399,76]
   - x[1436,76] - x[1472,76] + x[1501,76] - x[1738,76] + x[1769,76]
   - x[8762,76] = 0
 R297555: - x[1127,76] + x[1158,76] - x[1331,76] + x[1364,76] + x[1400,76]
   - x[1437,76] - x[1473,76] + x[1502,76] - x[1739,76] + x[1770,76]
   - x[8763,76] = 0
 R297556: - x[1128,76] + x[1159,76] - x[1332,76] + x[1365,76] + x[1401,76]
   - x[1438,76] - x[1474,76] + x[1503,76] - x[1740,76] + x[1771,76]
   - x[8764,76] = 0
 R297557: - x[1129,76] + x[1160,76] - x[1333,76] + x[1366,76] + x[1402,76]
   - x[1439,76] - x[1475,76] + x[1504,76] - x[1741,76] + x[1772,76]
   - x[8765,76] = 0
 R297558: - x[1130,76] + x[1161,76] - x[1334,76] + x[1367,76] + x[1403,76]
   - x[1440,76] - x[1476,76] + x[1505,76] - x[1742,76] + x[1773,76]
   - x[8766,76] = 0
 R297559: - x[1131,76] + x[1162,76] - x[1335,76] + x[1368,76] + x[1404,76]
   - x[1441,76] - x[1477,76] + x[1506,76] - x[1743,76] + x[1774,76]
   - x[8767,76] = 0
 R297560: - x[1132,76] + x[1163,76] - x[1336,76] + x[1369,76] + x[1405,76]
   - x[1442,76] - x[1478,76] + x[1507,76] - x[1744,76] + x[1775,76]
   - x[8768,76] = 0
 R297561: - x[1133,76] + x[1164,76] - x[1337,76] + x[1370,76] + x[1406,76]
   - x[1443,76] - x[1479,76] + x[1508,76] - x[1745,76] + x[1776,76]
   - x[8769,76] = 0
 R297562: - x[1134,76] + x[1165,76] - x[1338,76] + x[1371,76] + x[1407,76]
   - x[1444,76] - x[1480,76] + x[1509,76] - x[1746,76] + x[1777,76]
   - x[8770,76] = 0
 R297563: - x[1135,76] + x[1166,76] - x[1339,76] + x[1372,76] + x[1408,76]
   - x[1445,76] - x[1481,76] + x[1510,76] - x[1747,76] + x[1778,76]
   - x[8771,76] = 0
 R297564: - x[1136,76] + x[1167,76] - x[1340,76] + x[1373,76] + x[1409,76]
   - x[1446,76] - x[1482,76] + x[1511,76] - x[1748,76] + x[1779,76]
   - x[8772,76] = 0
 R297565: - x[1137,76] + x[1168,76] - x[1341,76] + x[1374,76] + x[1410,76]
   - x[1447,76] - x[1483,76] + x[1512,76] - x[1749,76] + x[1780,76]
   - x[8773,76] = 0
 R380212: x[6639,76] + x[6640,76] + x[6641,76] + x[6642,76] + x[6643,76]
   + x[6644,76] + x[6645,76] + x[6646,76] + x[6647,76] + x[6648,76]
   + x[6649,76] + x[6650,76] + x[6651,76] + x[6652,76] + x[6653,76]
   + x[6654,76] + x[6655,76] + x[6656,76] + x[6657,76] + x[6658,76]
   + x[6659,76] + x[6660,76] + x[6661,76] + x[6662,76] + x[6663,76]
   + x[6664,76] + x[6665,76] + x[6666,76] + x[6667,76] + x[6668,76]
   + x[6669,76] + x[6670,76] + x[6671,76] + x[6672,76] + x[6673,76]
   + x[6674,76] + x[6675,76] = 1
Bounds
 x[1078,76] = 0
 x[1079,76] = 0
 x[1080,76] = 0
 x[1081,76] = 0
 x[1082,76] = 0
 x[1083,76] = 0
 x[1084,76] = 0
 x[1085,76] = 0
 x[1086,76] = 0
 x[1087,76] = 0
 x[1088,76] = 0
 x[1089,76] = 0
 x[1090,76] = 0
 x[1091,76] = 0
 x[1092,76] = 0
 x[1093,76] = 0
 x[1094,76] = 0
 x[1095,76] = 0
 x[1096,76] = 0
 x[1097,76] = 0
 x[1098,76] = 0
 x[1146,76] = 0
 x[1147,76] = 0
 x[1148,76] = 0
 x[1149,76] = 0
 x[1150,76] = 0
 x[1151,76] = 0
 x[1152,76] = 0
 x[1153,76] = 0
 x[1154,76] = 0
 x[1155,76] = 0
 x[1156,76] = 0
 x[1157,76] = 0
 x[1158,76] = 0
 x[1159,76] = 0
 x[1160,76] = 0
 x[1161,76] = 0
 x[1162,76] = 0
 x[1163,76] = 0
 x[1164,76] = 0
 x[1165,76] = 0
 x[1166,76] = 0
 x[1167,76] = 0
 x[1168,76] = 0
 x[1491,76] = 0
 x[1492,76] = 0
 x[1493,76] = 0
 x[1494,76] = 0
 x[1495,76] = 0
 x[1496,76] = 0
 x[1497,76] = 0
 x[1498,76] = 0
 x[1499,76] = 0
 x[1500,76] = 0
 x[1501,76] = 0
 x[1502,76] = 0
 x[1503,76] = 0
 x[1504,76] = 0
 x[1505,76] = 0
 x[1506,76] = 0
 x[1507,76] = 0
 x[1508,76] = 0
 x[1509,76] = 0
 x[1510,76] = 0
 x[1511,76] = 0
 x[1512,76] = 0
 x[1691,76] = 0
 x[1692,76] = 0
 x[1693,76] = 0
 x[1694,76] = 0
 x[1695,76] = 0
 x[1696,76] = 0
 x[1697,76] = 0
 x[1698,76] = 0
 x[1699,76] = 0
 x[1700,76] = 0
 x[1701,76] = 0
 x[1702,76] = 0
 x[1703,76] = 0
 x[1704,76] = 0
 x[1705,76] = 0
 x[1706,76] = 0
 x[1707,76] = 0
 x[1708,76] = 0
 x[1709,76] = 0
 x[1710,76] = 0
 x[1758,76] = 0
 x[1759,76] = 0
 x[1760,76] = 0
 x[1761,76] = 0
 x[1762,76] = 0
 x[1763,76] = 0
 x[1764,76] = 0
 x[1765,76] = 0
 x[1766,76] = 0
 x[1767,76] = 0
 x[1768,76] = 0
 x[1769,76] = 0
 x[1770,76] = 0
 x[1771,76] = 0
 x[1772,76] = 0
 x[1773,76] = 0
 x[1774,76] = 0
 x[1775,76] = 0
 x[1776,76] = 0
 x[1777,76] = 0
 x[1778,76] = 0
 x[1779,76] = 0
 x[1780,76] = 0
 x[2168,76] = 0
 x[2169,76] = 0
 x[2170,76] = 0
 x[2171,76] = 0
 x[2172,76] = 0
 x[2173,76] = 0
 x[2174,76] = 0
 x[2175,76] = 0
 x[2176,76] = 0
 x[2177,76] = 0
 x[2178,76] = 0
 x[2179,76] = 0
 x[2180,76] = 0
 x[2181,76] = 0
 x[2182,76] = 0
 x[2183,76] = 0
 x[2184,76] = 0
 x[2185,76] = 0
 x[2186,76] = 0
 x[2187,76] = 0
 x[2188,76] = 0
 x[2189,76] = 0
 x[2190,76] = 0
 x[2191,76] = 0
 x[2192,76] = 0
 x[2193,76] = 0
 x[2194,76] = 0
 x[2195,76] = 0
 x[2196,76] = 0
 x[2197,76] = 0
 x[2198,76] = 0
 x[2199,76] = 0
 x[2200,76] = 0
 x[2201,76] = 0
 x[2476,76] = 0
 x[2477,76] = 0
 x[2478,76] = 0
 x[2479,76] = 0
 x[2480,76] = 0
 x[2481,76] = 0
 x[2482,76] = 0
 x[2483,76] = 0
 x[2484,76] = 0
 x[2485,76] = 0
 x[2486,76] = 0
 x[2487,76] = 0
 x[2488,76] = 0
 x[2489,76] = 0
 x[2490,76] = 0
 x[2491,76] = 0
 x[2492,76] = 0
 x[2493,76] = 0
 x[2494,76] = 0
 x[2495,76] = 0
 x[2496,76] = 0
 x[2497,76] = 0
 x[2498,76] = 0
 x[2499,76] = 0
 x[2500,76] = 0
 x[2501,76] = 0
 x[2502,76] = 0
 x[2503,76] = 0
 x[2504,76] = 0
 x[2505,76] = 0
 x[2506,76] = 0
 x[2507,76] = 0
 x[2508,76] = 0
 x[2509,76] = 0
 x[2510,76] = 0
 x[2511,76] = 0
Binaries
 x[1044,76] x[1045,76] x[1046,76] x[1047,76] x[1048,76] x[1049,76]
 x[1050,76] x[1051,76] x[1052,76] x[1053,76] x[1054,76] x[1055,76]
 x[1056,76] x[1057,76] x[1058,76] x[1059,76] x[1060,76] x[1061,76]
 x[1062,76] x[1063,76] x[1064,76] x[1065,76] x[1066,76] x[1067,76]
 x[1078,76] x[1079,76] x[1080,76] x[1081,76] x[1082,76] x[1083,76]
 x[1084,76] x[1085,76] x[1086,76] x[1087,76] x[1088,76] x[1089,76]
 x[1090,76] x[1091,76] x[1092,76] x[1093,76] x[1094,76] x[1095,76]
 x[1096,76] x[1097,76] x[1098,76] x[1112,76] x[1113,76] x[1114,76]
 x[1115,76] x[1116,76] x[1117,76] x[1118,76] x[1119,76] x[1120,76]
 x[1121,76] x[1122,76] x[1123,76] x[1124,76] x[1125,76] x[1126,76]
 x[1127,76] x[1128,76] x[1129,76] x[1130,76] x[1131,76] x[1132,76]
 x[1133,76] x[1134,76] x[1135,76] x[1136,76] x[1137,76] x[1146,76]
 x[1147,76] x[1148,76] x[1149,76] x[1150,76] x[1151,76] x[1152,76]
 x[1153,76] x[1154,76] x[1155,76] x[1156,76] x[1157,76] x[1158,76]
 x[1159,76] x[1160,76] x[1161,76] x[1162,76] x[1163,76] x[1164,76]
 x[1165,76] x[1166,76] x[1167,76] x[1168,76] x[1316,76] x[1317,76]
 x[1318,76] x[1319,76] x[1320,76] x[1321,76] x[1322,76] x[1323,76]
 x[1324,76] x[1325,76] x[1326,76] x[1327,76] x[1328,76] x[1329,76]
 x[1330,76] x[1331,76] x[1332,76] x[1333,76] x[1334,76] x[1335,76]
 x[1336,76] x[1337,76] x[1338,76] x[1339,76] x[1340,76] x[1341,76]
 x[1351,76] x[1352,76] x[1353,76] x[1354,76] x[1355,76] x[1356,76]
 x[1357,76] x[1358,76] x[1359,76] x[1360,76] x[1361,76] x[1362,76]
 x[1363,76] x[1364,76] x[1365,76] x[1366,76] x[1367,76] x[1368,76]
 x[1369,76] x[1370,76] x[1371,76] x[1372,76] x[1373,76] x[1374,76]
 x[1386,76] x[1387,76] x[1388,76] x[1389,76] x[1390,76] x[1391,76]
 x[1392,76] x[1393,76] x[1394,76] x[1395,76] x[1396,76] x[1397,76]
 x[1398,76] x[1399,76] x[1400,76] x[1401,76] x[1402,76] x[1403,76]
 x[1404,76] x[1405,76] x[1406,76] x[1407,76] x[1408,76] x[1409,76]
 x[1410,76] x[1411,76] x[1412,76] x[1422,76] x[1423,76] x[1424,76]
 x[1425,76] x[1426,76] x[1427,76] x[1428,76] x[1429,76] x[1430,76]
 x[1431,76] x[1432,76] x[1433,76] x[1434,76] x[1435,76] x[1436,76]
 x[1437,76] x[1438,76] x[1439,76] x[1440,76] x[1441,76] x[1442,76]
 x[1443,76] x[1444,76] x[1445,76] x[1446,76] x[1447,76] x[1458,76]
 x[1459,76] x[1460,76] x[1461,76] x[1462,76] x[1463,76] x[1464,76]
 x[1465,76] x[1466,76] x[1467,76] x[1468,76] x[1469,76] x[1470,76]
 x[1471,76] x[1472,76] x[1473,76] x[1474,76] x[1475,76] x[1476,76]
 x[1477,76] x[1478,76] x[1479,76] x[1480,76] x[1481,76] x[1482,76]
 x[1483,76] x[1491,76] x[1492,76] x[1493,76] x[1494,76] x[1495,76]
 x[1496,76] x[1497,76] x[1498,76] x[1499,76] x[1500,76] x[1501,76]
 x[1502,76] x[1503,76] x[1504,76] x[1505,76] x[1506,76] x[1507,76]
 x[1508,76] x[1509,76] x[1510,76] x[1511,76] x[1512,76] x[1524,76]
 x[1525,76] x[1526,76] x[1527,76] x[1528,76] x[1529,76] x[1530,76]
 x[1531,76] x[1532,76] x[1533,76] x[1534,76] x[1535,76] x[1536,76]
 x[1537,76] x[1538,76] x[1539,76] x[1540,76] x[1541,76] x[1542,76]
 x[1543,76] x[1544,76] x[1545,76] x[1546,76] x[1547,76] x[1548,76]
 x[1549,76] x[1550,76] x[1551,76] x[1552,76] x[1553,76] x[1554,76]
 x[1557,76] x[1558,76] x[1559,76] x[1560,76] x[1561,76] x[1562,76]
 x[1563,76] x[1564,76] x[1565,76] x[1566,76] x[1567,76] x[1568,76]
 x[1569,76] x[1570,76] x[1571,76] x[1572,76] x[1573,76] x[1574,76]
 x[1575,76] x[1576,76] x[1577,76] x[1578,76] x[1579,76] x[1580,76]
 x[1581,76] x[1582,76] x[1583,76] x[1658,76] x[1659,76] x[1660,76]
 x[1661,76] x[1662,76] x[1663,76] x[1664,76] x[1665,76] x[1666,76]
 x[1667,76] x[1668,76] x[1669,76] x[1670,76] x[1671,76] x[1672,76]
 x[1673,76] x[1674,76] x[1675,76] x[1676,76] x[1677,76] x[1678,76]
 x[1679,76] x[1680,76] x[1681,76] x[1691,76] x[1692,76] x[1693,76]
 x[1694,76] x[1695,76] x[1696,76] x[1697,76] x[1698,76] x[1699,76]
 x[1700,76] x[1701,76] x[1702,76] x[1703,76] x[1704,76] x[1705,76]
 x[1706,76] x[1707,76] x[1708,76] x[1709,76] x[1710,76] x[1724,76]
 x[1725,76] x[1726,76] x[1727,76] x[1728,76] x[1729,76] x[1730,76]
 x[1731,76] x[1732,76] x[1733,76] x[1734,76] x[1735,76] x[1736,76]
 x[1737,76] x[1738,76] x[1739,76] x[1740,76] x[1741,76] x[1742,76]
 x[1743,76] x[1744,76] x[1745,76] x[1746,76] x[1747,76] x[1748,76]
 x[1749,76] x[1758,76] x[1759,76] x[1760,76] x[1761,76] x[1762,76]
 x[1763,76] x[1764,76] x[1765,76] x[1766,76] x[1767,76] x[1768,76]
 x[1769,76] x[1770,76] x[1771,76] x[1772,76] x[1773,76] x[1774,76]
 x[1775,76] x[1776,76] x[1777,76] x[1778,76] x[1779,76] x[1780,76]
 x[1792,76] x[1793,76] x[1794,76] x[1795,76] x[1796,76] x[1797,76]
 x[1798,76] x[1799,76] x[1800,76] x[1801,76] x[1802,76] x[1803,76]
 x[1804,76] x[1805,76] x[1806,76] x[1807,76] x[1808,76] x[1809,76]
 x[1810,76] x[1811,76] x[1812,76] x[1813,76] x[1814,76] x[1815,76]
 x[1816,76] x[1817,76] x[1818,76] x[1819,76] x[1820,76] x[1821,76]
 x[1822,76] x[1823,76] x[1824,76] x[1825,76] x[1826,76] x[1827,76]
 x[1828,76] x[1829,76] x[1830,76] x[1831,76] x[1832,76] x[1833,76]
 x[1834,76] x[1835,76] x[1836,76] x[1837,76] x[1838,76] x[1839,76]
 x[1840,76] x[1841,76] x[1842,76] x[1843,76] x[1844,76] x[1845,76]
 x[1846,76] x[1847,76] x[1848,76] x[1849,76] x[1850,76] x[1851,76]
 x[1852,76] x[1853,76] x[1854,76] x[1855,76] x[1856,76] x[2134,76]
 x[2135,76] x[2136,76] x[2137,76] x[2138,76] x[2139,76] x[2140,76]
 x[2141,76] x[2142,76] x[2143,76] x[2144,76] x[2145,76] x[2146,76]
 x[2147,76] x[2148,76] x[2149,76] x[2150,76] x[2151,76] x[2152,76]
 x[2153,76] x[2154,76] x[2155,76] x[2156,76] x[2157,76] x[2158,76]
 x[2159,76] x[2160,76] x[2161,76] x[2162,76] x[2163,76] x[2164,76]
 x[2165,76] x[2166,76] x[2167,76] x[2168,76] x[2169,76] x[2170,76]
 x[2171,76] x[2172,76] x[2173,76] x[2174,76] x[2175,76] x[2176,76]
 x[2177,76] x[2178,76] x[2179,76] x[2180,76] x[2181,76] x[2182,76]
 x[2183,76] x[2184,76] x[2185,76] x[2186,76] x[2187,76] x[2188,76]
 x[2189,76] x[2190,76] x[2191,76] x[2192,76] x[2193,76] x[2194,76]
 x[2195,76] x[2196,76] x[2197,76] x[2198,76] x[2199,76] x[2200,76]
 x[2201,76] x[2270,76] x[2271,76] x[2272,76] x[2273,76] x[2274,76]
 x[2275,76] x[2276,76] x[2277,76] x[2278,76] x[2279,76] x[2280,76]
 x[2281,76] x[2282,76] x[2283,76] x[2284,76] x[2285,76] x[2286,76]
 x[2287,76] x[2288,76] x[2289,76] x[2290,76] x[2291,76] x[2292,76]
 x[2293,76] x[2294,76] x[2295,76] x[2296,76] x[2297,76] x[2298,76]
 x[2299,76] x[2300,76] x[2301,76] x[2302,76] x[2303,76] x[2304,76]
 x[2305,76] x[2306,76] x[2307,76] x[2308,76] x[2309,76] x[2310,76]
 x[2311,76] x[2312,76] x[2313,76] x[2314,76] x[2315,76] x[2316,76]
 x[2317,76] x[2318,76] x[2319,76] x[2320,76] x[2321,76] x[2322,76]
 x[2323,76] x[2324,76] x[2325,76] x[2326,76] x[2327,76] x[2328,76]
 x[2329,76] x[2330,76] x[2331,76] x[2332,76] x[2333,76] x[2334,76]
 x[2335,76] x[2336,76] x[2337,76] x[2476,76] x[2477,76] x[2478,76]
 x[2479,76] x[2480,76] x[2481,76] x[2482,76] x[2483,76] x[2484,76]
 x[2485,76] x[2486,76] x[2487,76] x[2488,76] x[2489,76] x[2490,76]
 x[2491,76] x[2492,76] x[2493,76] x[2494,76] x[2495,76] x[2496,76]
 x[2497,76] x[2498,76] x[2499,76] x[2500,76] x[2501,76] x[2502,76]
 x[2503,76] x[2504,76] x[2505,76] x[2506,76] x[2507,76] x[2508,76]
 x[2509,76] x[2510,76] x[2511,76] x[2512,76] x[2513,76] x[2514,76]
 x[2515,76] x[2516,76] x[2517,76] x[2518,76] x[2519,76] x[2520,76]
 x[2521,76] x[2522,76] x[2523,76] x[2524,76] x[2525,76] x[2526,76]
 x[2527,76] x[2528,76] x[2529,76] x[2530,76] x[2531,76] x[2532,76]
 x[2533,76] x[2534,76] x[2535,76] x[2536,76] x[2537,76] x[2538,76]
 x[2539,76] x[2540,76] x[2541,76] x[2542,76] x[2543,76] x[2544,76]
 x[2545,76] x[2546,76] x[2547,76] x[6602,76] x[6603,76] x[6604,76]
 x[6605,76] x[6606,76] x[6607,76] x[6608,76] x[6609,76] x[6610,76]
 x[6611,76] x[6612,76] x[6613,76] x[6614,76] x[6615,76] x[6616,76]
 x[6617,76] x[6618,76] x[6619,76] x[6620,76] x[6621,76] x[6622,76]
 x[6623,76] x[6624,76] x[6625,76] x[6626,76] x[6627,76] x[6628,76]
 x[6629,76] x[6630,76] x[6631,76] x[6632,76] x[6633,76] x[6634,76]
 x[6635,76] x[6639,76] x[6640,76] x[6641,76] x[6642,76] x[6643,76]
 x[6644,76] x[6645,76] x[6646,76] x[6647,76] x[6648,76] x[6649,76]
 x[6650,76] x[6651,76] x[6652,76] x[6653,76] x[6654,76] x[6655,76]
 x[6656,76] x[6657,76] x[6658,76] x[6659,76] x[6660,76] x[6661,76]
 x[6662,76] x[6663,76] x[6664,76] x[6665,76] x[6666,76] x[6667,76]
 x[6668,76] x[6669,76] x[6670,76] x[6671,76] x[6672,76] x[6673,76]
 x[6674,76] x[6675,76] x[7120,76] x[7121,76] x[7122,76] x[7123,76]
 x[7124,76] x[7125,76] x[7126,76] x[7127,76] x[7128,76] x[7129,76]
 x[7130,76] x[7131,76] x[7132,76] x[7133,76] x[7134,76] x[7135,76]
 x[7136,76] x[7137,76] x[7138,76] x[7139,76] x[7140,76] x[7141,76]
 x[7142,76] x[7143,76] x[7268,76] x[7269,76] x[7270,76] x[7271,76]
 x[7272,76] x[7273,76] x[7274,76] x[7275,76] x[7276,76] x[7277,76]
 x[7278,76] x[7279,76] x[7280,76] x[7281,76] x[7282,76] x[7283,76]
 x[7284,76] x[7285,76] x[7286,76] x[7287,76] x[7288,76] x[7289,76]
 x[7290,76] x[7291,76] x[7292,76] x[7293,76] x[7294,76] x[7295,76]
 x[7296,76] x[7297,76] x[7298,76] x[8156,76] x[8157,76] x[8158,76]
 x[8159,76] x[8160,76] x[8161,76] x[8162,76] x[8163,76] x[8164,76]
 x[8165,76] x[8166,76] x[8167,76] x[8168,76] x[8169,76] x[8170,76]
 x[8171,76] x[8172,76] x[8173,76] x[8174,76] x[8175,76] x[8176,76]
 x[8177,76] x[8178,76] x[8179,76] x[8180,76] x[8181,76] x[8182,76]
 x[8748,76] x[8749,76] x[8750,76] x[8751,76] x[8752,76] x[8753,76]
 x[8754,76] x[8755,76] x[8756,76] x[8757,76] x[8758,76] x[8759,76]
 x[8760,76] x[8761,76] x[8762,76] x[8763,76] x[8764,76] x[8765,76]
 x[8766,76] x[8767,76] x[8768,76] x[8769,76] x[8770,76] x[8771,76]
 x[8772,76] x[8773,76]
End
